NAME : X_18_seed_123_id_7
TYPE : CVRP
DIMENSION : 181
EDGE_WEIGHT_TYPE : EUC_2D
CAPACITY : 8
NODE_COORD_SECTION
1	10	395
2	866	270
3	345	424
4	509	953
5	723	644
6	470	122
7	472	919
8	378	475
9	652	452
10	520	134
11	649	634
12	675	607
13	460	863
14	385	416
15	447	920
16	686	644
17	220	482
18	420	989
19	731	486
20	429	101
21	645	760
22	459	974
23	363	439
24	360	444
25	343	289
26	830	140
27	605	913
28	463	867
29	707	648
30	866	330
31	310	459
32	542	896
33	454	76
34	533	900
35	592	919
36	860	250
37	785	751
38	464	897
39	931	318
40	405	896
41	479	898
42	369	468
43	425	916
44	518	930
45	648	798
46	357	408
47	511	938
48	952	476
49	486	991
50	487	920
51	436	999
52	708	588
53	848	648
54	514	869
55	508	890
56	469	129
57	729	637
58	514	881
59	568	992
60	829	399
61	397	415
62	730	708
63	743	647
64	359	436
65	693	669
66	407	944
67	928	283
68	475	916
69	838	599
70	847	252
71	767	625
72	547	967
73	460	41
74	579	93
75	697	630
76	860	371
77	519	962
78	718	614
79	604	84
80	494	128
81	668	622
82	497	902
83	518	72
84	479	896
85	578	929
86	264	444
87	919	245
88	505	981
89	456	917
90	509	896
91	330	384
92	548	991
93	985	153
94	880	273
95	445	920
96	554	990
97	253	453
98	189	360
99	385	406
100	492	935
101	484	42
102	514	962
103	763	676
104	290	354
105	458	118
106	878	220
107	943	211
108	762	631
109	456	927
110	469	934
111	476	931
112	859	295
113	481	953
114	779	233
115	452	787
116	660	655
117	767	300
118	496	96
119	304	422
120	465	177
121	487	871
122	374	387
123	537	79
124	876	163
125	496	132
126	825	239
127	703	614
128	697	673
129	525	69
130	999	282
131	414	166
132	680	693
133	302	326
134	496	83
135	551	896
136	885	212
137	581	806
138	481	789
139	775	702
140	464	911
141	344	928
142	475	134
143	651	747
144	444	965
145	322	919
146	588	89
147	862	240
148	703	650
149	816	642
150	774	600
151	688	622
152	528	226
153	872	304
154	377	354
155	515	935
156	486	947
157	673	624
158	906	247
159	416	425
160	421	390
161	451	133
162	513	747
163	853	207
164	860	257
165	417	972
166	289	426
167	342	410
168	476	125
169	880	241
170	351	402
171	712	704
172	164	344
173	796	119
174	743	669
175	674	211
176	673	98
177	495	961
178	454	228
179	262	467
180	886	221
181	604	921
DEMAND_SECTION
1	0
2	1
3	1
4	1
5	1
6	1
7	1
8	1
9	1
10	1
11	1
12	1
13	1
14	1
15	1
16	1
17	1
18	1
19	1
20	1
21	1
22	1
23	1
24	1
25	1
26	1
27	1
28	1
29	1
30	1
31	1
32	1
33	1
34	1
35	1
36	1
37	1
38	1
39	1
40	1
41	1
42	1
43	1
44	1
45	1
46	1
47	1
48	1
49	1
50	1
51	1
52	1
53	1
54	1
55	1
56	1
57	1
58	1
59	1
60	1
61	1
62	1
63	1
64	1
65	1
66	1
67	1
68	1
69	1
70	1
71	1
72	1
73	1
74	1
75	1
76	1
77	1
78	1
79	1
80	1
81	1
82	1
83	1
84	1
85	1
86	1
87	1
88	1
89	1
90	1
91	1
92	1
93	1
94	1
95	1
96	1
97	1
98	1
99	1
100	1
101	1
102	1
103	1
104	1
105	1
106	1
107	1
108	1
109	1
110	1
111	1
112	1
113	1
114	1
115	1
116	1
117	1
118	1
119	1
120	1
121	1
122	1
123	1
124	1
125	1
126	1
127	1
128	1
129	1
130	1
131	1
132	1
133	1
134	1
135	1
136	1
137	1
138	1
139	1
140	1
141	1
142	1
143	1
144	1
145	1
146	1
147	1
148	1
149	1
150	1
151	1
152	1
153	1
154	1
155	1
156	1
157	1
158	1
159	1
160	1
161	1
162	1
163	1
164	1
165	1
166	1
167	1
168	1
169	1
170	1
171	1
172	1
173	1
174	1
175	1
176	1
177	1
178	1
179	1
180	1
181	1
DEPOT_SECTION
1
-1
EOF
